--------------------------------------------------------------------------------(Solver execution current time: 0.000186920166015625)
[INFO] Input Seed : 9191401
--------------------------------------------------------------------------------(Solver execution current time: 0.0002295970916748047)
[INFO] Input time limit : 30
--------------------------------------------------------------------------------(Solver execution current time: 0.0002639293670654297)
[INFO] Command line arguments read with no errors.
--------------------------------------------------------------------------------(Solver execution current time: 0.0377504825592041)
[INFO] Input file read with no errors.
--------------------------------------------------------------------------------(Solver execution current time: 0.037847042083740234)
[INFO] Starting solver.
--------------------------------------------------------------------------------(Solver execution current time: 0.03788638114929199)
[INFO] Starting construction
--------------------------------------------------------------------------------(Solver execution current time: 11.882197141647339)
[INFO] Finished construction
--------------------------------------------------------------------------------(Solver execution current time: 11.882291316986084)
[SOLUTION]
Basic Greedy Heuristic
Exec Time: 11.844308137893677
obj_value: -65; obj_routes: 27578.0
Route 1 : 6 32 107 52 59 81 127 3 11 86 19 31 94 106 41 134 39 116 78 56 68 131 74 149 22 97 114 12 87 143 47 122 
Route 2 : 33 13 88 53 18 70 62 2 27 108 128 145 10 48 77 123 1 28 102 103 76 42 117 4 85 14 137 89 79 93 8 83 49 60 124 135 
Route 3 : 51 126 63 40 115 138 54 129 9 84 50 69 43 24 99 125 64 144 139 37 118 112 
Route 4 : 73 148 57 29 132 30 104 15 90 61 65 140 45 136 105 120 23 98 67 142 
Route 5 : 75 150 66 7 141 38 113 82 72 16 147 91 
Route 6 : 21 96 35 110 58 133 
Route 7 : 17 92 
Route 8 : 
Route 9 : 
Route 10 : 
Route 11 : 
Route 12 : 
Route 13 : 
Route 14 : 
Route 15 : 
Route 16 : 
Route 17 : 
Route 18 : 
Route 19 : 
Route 20 : 
Route 21 : 

--------------------------------------------------------------------------------(Solver execution current time: 11.883908748626709)
[SOLUTION]
Solution after BasicGreedyLimitedHeterogeneousFleet
obj_value: -65; obj_routes: 27578.0
Route 1 : 6 32 107 52 59 81 127 3 11 86 19 31 94 106 41 134 39 116 78 56 68 131 74 149 22 97 114 12 87 143 47 122 
Route 2 : 33 13 88 53 18 70 62 2 27 108 128 145 10 48 77 123 1 28 102 103 76 42 117 4 85 14 137 89 79 93 8 83 49 60 124 135 
Route 3 : 51 126 63 40 115 138 54 129 9 84 50 69 43 24 99 125 64 144 139 37 118 112 
Route 4 : 73 148 57 29 132 30 104 15 90 61 65 140 45 136 105 120 23 98 67 142 
Route 5 : 75 150 66 7 141 38 113 82 72 16 147 91 
Route 6 : 21 96 35 110 58 133 
Route 7 : 17 92 
Route 8 : 
Route 9 : 
Route 10 : 
Route 11 : 
Route 12 : 
Route 13 : 
Route 14 : 
Route 15 : 
Route 16 : 
Route 17 : 
Route 18 : 
Route 19 : 
Route 20 : 
Route 21 : 

--------------------------------------------------------------------------------(Solver execution current time: 11.884146451950073)
[INFO] Starting metaheuristic
--------------------------------------------------------------------------------(Solver execution current time: 11.886612176895142)
[INFO] AGES EXCLUDED
--------------------------------------------------------------------------------(Solver execution current time: 11.88807225227356)
[INFO] Starting LNS
--------------------------------------------------------------------------------(Solver execution current time: 12.934564113616943)
[SOLUTION]
LNS
IT: 40
Exec Time: 1.0446274280548096
obj_value: -65; obj_routes: 27578.0
Route 1 : 6 32 107 52 59 81 127 3 11 86 19 31 94 106 41 134 39 116 78 56 68 131 74 149 22 97 114 12 87 143 47 122 
Route 2 : 33 13 88 53 18 70 62 2 27 108 128 145 10 48 77 123 1 28 102 103 76 42 117 4 85 14 137 89 79 93 8 83 49 60 124 135 
Route 3 : 51 126 63 40 115 138 54 129 9 84 50 69 43 24 99 125 64 144 139 37 118 112 
Route 4 : 73 148 57 29 132 30 104 15 90 61 65 140 45 136 105 120 23 98 67 142 
Route 5 : 75 150 66 7 141 38 113 82 72 16 147 91 
Route 6 : 21 96 35 110 58 133 
Route 7 : 17 92 
Route 8 : 
Route 9 : 
Route 10 : 
Route 11 : 
Route 12 : 
Route 13 : 
Route 14 : 
Route 15 : 
Route 16 : 
Route 17 : 
Route 18 : 
Route 19 : 
Route 20 : 
Route 21 : 

--------------------------------------------------------------------------------(Solver execution current time: 12.936487197875977)
[INFO] Starting PartitionMaxRequestsHF
--------------------------------------------------------------------------------(Solver execution current time: 12.991966724395752)
[SOLUTION]
PartitionMaxRequestsHF
Exec Time: 0.0554201602935791
obj_value: -65; obj_routes: 27578.0
Route 1 : 6 32 107 52 59 81 127 3 11 86 19 31 94 106 41 134 39 116 78 56 68 131 74 149 22 97 114 12 87 143 47 122 
Route 2 : 33 13 88 53 18 70 62 2 27 108 128 145 10 48 77 123 1 28 102 103 76 42 117 4 85 14 137 89 79 93 8 83 49 60 124 135 
Route 3 : 51 126 63 40 115 138 54 129 9 84 50 69 43 24 99 125 64 144 139 37 118 112 
Route 4 : 73 148 57 29 132 30 104 15 90 61 65 140 45 136 105 120 23 98 67 142 
Route 5 : 75 150 66 7 141 38 113 82 72 16 147 91 
Route 6 : 21 96 35 110 58 133 
Route 7 : 17 92 
Route 8 : 
Route 9 : 
Route 10 : 
Route 11 : 
Route 12 : 
Route 13 : 
Route 14 : 
Route 15 : 
Route 16 : 
Route 17 : 
Route 18 : 
Route 19 : 
Route 20 : 
Route 21 : 

--------------------------------------------------------------------------------(Solver execution current time: 12.993764162063599)
[INFO] Starting OriginalPerturbation
--------------------------------------------------------------------------------(Solver execution current time: 16.93530035018921)
[SOLUTION]
Original Perturbation
Exec Time: 3.942941188812256
obj_value: -65; obj_routes: 28971.0
Route 1 : 6 32 107 52 59 81 127 3 11 86 19 31 94 106 41 134 39 116 78 56 68 131 74 149 22 97 114 12 87 143 47 122 
Route 2 : 33 13 88 53 18 70 62 2 27 108 128 145 10 48 77 123 1 28 102 103 76 42 117 4 85 14 137 89 79 93 49 60 124 135 
Route 3 : 51 126 63 40 115 138 54 129 9 84 50 69 43 24 99 125 144 23 98 37 118 112 
Route 4 : 64 29 139 104 61 8 45 83 136 120 67 142 
Route 5 : 75 150 7 38 113 82 72 147 
Route 6 : 16 35 91 21 110 96 
Route 7 : 30 105 
Route 8 : 66 58 133 57 132 141 
Route 9 : 73 148 15 17 92 90 
Route 10 : 65 140 
Route 11 : 
Route 12 : 
Route 13 : 
Route 14 : 
Route 15 : 
Route 16 : 
Route 17 : 
Route 18 : 
Route 19 : 
Route 20 : 
Route 21 : 

--------------------------------------------------------------------------------(Solver execution current time: 16.937249422073364)
[SOLUTION]
SBMath
IT: 1
ITs witout improving: 1
IT time: 5.050639867782593
Time since begin: 5.051437139511108
obj_value: -65; obj_routes: 28971.0
Route 1 : 6 32 107 52 59 81 127 3 11 86 19 31 94 106 41 134 39 116 78 56 68 131 74 149 22 97 114 12 87 143 47 122 
Route 2 : 33 13 88 53 18 70 62 2 27 108 128 145 10 48 77 123 1 28 102 103 76 42 117 4 85 14 137 89 79 93 49 60 124 135 
Route 3 : 51 126 63 40 115 138 54 129 9 84 50 69 43 24 99 125 144 23 98 37 118 112 
Route 4 : 64 29 139 104 61 8 45 83 136 120 67 142 
Route 5 : 75 150 7 38 113 82 72 147 
Route 6 : 16 35 91 21 110 96 
Route 7 : 30 105 
Route 8 : 66 58 133 57 132 141 
Route 9 : 73 148 15 17 92 90 
Route 10 : 65 140 
Route 11 : 
Route 12 : 
Route 13 : 
Route 14 : 
Route 15 : 
Route 16 : 
Route 17 : 
Route 18 : 
Route 19 : 
Route 20 : 
Route 21 : 

--------------------------------------------------------------------------------(Solver execution current time: 16.937474966049194)
[SOLUTION]
SBMath
IT: 1
ITs witout improving: 1
IT time: 5.050639867782593
Time since begin: 5.051437139511108
obj_value: -65; obj_routes: 27235.0
Route 1 : 6 32 107 52 59 81 127 3 11 86 19 31 94 106 41 134 39 116 78 56 68 131 74 149 22 97 114 12 87 143 47 122 
Route 2 : 33 13 88 53 18 70 62 2 27 108 128 145 10 48 77 123 1 28 102 103 76 42 117 4 85 14 137 89 79 93 8 83 49 60 124 135 
Route 3 : 51 126 63 40 115 138 54 129 9 84 50 69 43 24 99 15 125 144 37 90 118 112 
Route 4 : 73 148 57 64 29 132 30 139 104 61 45 136 105 120 23 98 67 142 
Route 5 : 75 150 66 7 141 38 113 82 72 16 147 91 
Route 6 : 21 96 17 35 92 110 
Route 7 : 58 133 
Route 8 : 65 140 
Route 9 : 
Route 10 : 
Route 11 : 
Route 12 : 
Route 13 : 
Route 14 : 
Route 15 : 
Route 16 : 
Route 17 : 
Route 18 : 
Route 19 : 
Route 20 : 
Route 21 : 

--------------------------------------------------------------------------------(Solver execution current time: 16.93770480155945)
[INFO] AGES EXCLUDED
--------------------------------------------------------------------------------(Solver execution current time: 16.93922781944275)
[INFO] Starting LNS
--------------------------------------------------------------------------------(Solver execution current time: 18.23930311203003)
[SOLUTION]
LNS
IT: 40
Exec Time: 1.2980852127075195
obj_value: -65; obj_routes: 28971.0
Route 1 : 6 32 107 52 59 81 127 3 11 86 19 31 94 106 41 134 39 116 78 56 68 131 74 149 22 97 114 12 87 143 47 122 
Route 2 : 33 13 88 53 18 70 62 2 27 108 128 145 10 48 77 123 1 28 102 103 76 42 117 4 85 14 137 89 79 93 49 60 124 135 
Route 3 : 51 126 63 40 115 138 54 129 9 84 50 69 43 24 99 125 144 23 98 37 118 112 
Route 4 : 64 29 139 104 61 8 45 83 136 120 67 142 
Route 5 : 75 150 7 38 113 82 72 147 
Route 6 : 16 35 91 21 110 96 
Route 7 : 30 105 
Route 8 : 66 58 133 57 132 141 
Route 9 : 73 148 15 17 92 90 
Route 10 : 65 140 
Route 11 : 
Route 12 : 
Route 13 : 
Route 14 : 
Route 15 : 
Route 16 : 
Route 17 : 
Route 18 : 
Route 19 : 
Route 20 : 
Route 21 : 

--------------------------------------------------------------------------------(Solver execution current time: 18.241937398910522)
[INFO] Starting PartitionMaxRequestsHF
--------------------------------------------------------------------------------(Solver execution current time: 18.271195650100708)
[SOLUTION]
PartitionMaxRequestsHF
Exec Time: 0.029193401336669922
obj_value: -65; obj_routes: 28971.0
Route 1 : 6 32 107 52 59 81 127 3 11 86 19 31 94 106 41 134 39 116 78 56 68 131 74 149 22 97 114 12 87 143 47 122 
Route 2 : 33 13 88 53 18 70 62 2 27 108 128 145 10 48 77 123 1 28 102 103 76 42 117 4 85 14 137 89 79 93 49 60 124 135 
Route 3 : 51 126 63 40 115 138 54 129 9 84 50 69 43 24 99 125 144 23 98 37 118 112 
Route 4 : 64 29 139 104 61 8 45 83 136 120 67 142 
Route 5 : 75 150 7 38 113 82 72 147 
Route 6 : 16 35 91 21 110 96 
Route 7 : 30 105 
Route 8 : 66 58 133 57 132 141 
Route 9 : 73 148 15 17 92 90 
Route 10 : 65 140 
Route 11 : 
Route 12 : 
Route 13 : 
Route 14 : 
Route 15 : 
Route 16 : 
Route 17 : 
Route 18 : 
Route 19 : 
Route 20 : 
Route 21 : 

--------------------------------------------------------------------------------(Solver execution current time: 18.27309274673462)
[INFO] Starting OriginalPerturbation
--------------------------------------------------------------------------------(Solver execution current time: 21.071531295776367)
[SOLUTION]
Original Perturbation
Exec Time: 2.7998898029327393
obj_value: -65; obj_routes: 28502.0
Route 1 : 6 32 107 52 59 81 127 3 11 86 19 31 94 106 41 134 39 116 78 56 68 131 22 97 114 12 87 143 
Route 2 : 33 13 88 53 18 70 62 2 27 108 128 145 10 48 77 123 1 28 102 103 76 42 117 4 85 14 137 89 79 93 49 60 124 135 
Route 3 : 51 126 63 40 115 138 54 129 9 84 50 69 125 144 23 98 
Route 4 : 37 43 38 113 8 45 112 83 120 67 118 142 
Route 5 : 75 150 47 30 122 7 105 82 72 147 
Route 6 : 17 92 15 90 57 132 
Route 7 : 73 148 66 141 
Route 8 : 29 21 64 96 61 136 139 104 
Route 9 : 35 16 58 91 110 133 
Route 10 : 65 140 
Route 11 : 24 99 
Route 12 : 74 149 
Route 13 : 
Route 14 : 
Route 15 : 
Route 16 : 
Route 17 : 
Route 18 : 
Route 19 : 
Route 20 : 
Route 21 : 

--------------------------------------------------------------------------------(Solver execution current time: 21.073124170303345)
[SOLUTION]
SBMath
IT: 2
ITs witout improving: 2
IT time: 4.135425329208374
Time since begin: 9.187312126159668
obj_value: -65; obj_routes: 28502.0
Route 1 : 6 32 107 52 59 81 127 3 11 86 19 31 94 106 41 134 39 116 78 56 68 131 22 97 114 12 87 143 
Route 2 : 33 13 88 53 18 70 62 2 27 108 128 145 10 48 77 123 1 28 102 103 76 42 117 4 85 14 137 89 79 93 49 60 124 135 
Route 3 : 51 126 63 40 115 138 54 129 9 84 50 69 125 144 23 98 
Route 4 : 37 43 38 113 8 45 112 83 120 67 118 142 
Route 5 : 75 150 47 30 122 7 105 82 72 147 
Route 6 : 17 92 15 90 57 132 
Route 7 : 73 148 66 141 
Route 8 : 29 21 64 96 61 136 139 104 
Route 9 : 35 16 58 91 110 133 
Route 10 : 65 140 
Route 11 : 24 99 
Route 12 : 74 149 
Route 13 : 
Route 14 : 
Route 15 : 
Route 16 : 
Route 17 : 
Route 18 : 
Route 19 : 
Route 20 : 
Route 21 : 

--------------------------------------------------------------------------------(Solver execution current time: 21.073364734649658)
[SOLUTION]
SBMath
IT: 2
ITs witout improving: 2
IT time: 4.135425329208374
Time since begin: 9.187312126159668
obj_value: -65; obj_routes: 27235.0
Route 1 : 6 32 107 52 59 81 127 3 11 86 19 31 94 106 41 134 39 116 78 56 68 131 74 149 22 97 114 12 87 143 47 122 
Route 2 : 33 13 88 53 18 70 62 2 27 108 128 145 10 48 77 123 1 28 102 103 76 42 117 4 85 14 137 89 79 93 8 83 49 60 124 135 
Route 3 : 51 126 63 40 115 138 54 129 9 84 50 69 43 24 99 15 125 144 37 90 118 112 
Route 4 : 73 148 57 64 29 132 30 139 104 61 45 136 105 120 23 98 67 142 
Route 5 : 75 150 66 7 141 38 113 82 72 16 147 91 
Route 6 : 21 96 17 35 92 110 
Route 7 : 58 133 
Route 8 : 65 140 
Route 9 : 
Route 10 : 
Route 11 : 
Route 12 : 
Route 13 : 
Route 14 : 
Route 15 : 
Route 16 : 
Route 17 : 
Route 18 : 
Route 19 : 
Route 20 : 
Route 21 : 

--------------------------------------------------------------------------------(Solver execution current time: 21.0736083984375)
[INFO] AGES EXCLUDED
--------------------------------------------------------------------------------(Solver execution current time: 21.07515549659729)
[INFO] Starting LNS
--------------------------------------------------------------------------------(Solver execution current time: 22.139225482940674)
[SOLUTION]
LNS
IT: 40
Exec Time: 1.0620577335357666
obj_value: -65; obj_routes: 28502.0
Route 1 : 6 32 107 52 59 81 127 3 11 86 19 31 94 106 41 134 39 116 78 56 68 131 22 97 114 12 87 143 
Route 2 : 33 13 88 53 18 70 62 2 27 108 128 145 10 48 77 123 1 28 102 103 76 42 117 4 85 14 137 89 79 93 49 60 124 135 
Route 3 : 51 126 63 40 115 138 54 129 9 84 50 69 125 144 23 98 
Route 4 : 37 43 38 113 8 45 112 83 120 67 118 142 
Route 5 : 75 150 47 30 122 7 105 82 72 147 
Route 6 : 17 92 15 90 57 132 
Route 7 : 73 148 66 141 
Route 8 : 29 21 64 96 61 136 139 104 
Route 9 : 35 16 58 91 110 133 
Route 10 : 65 140 
Route 11 : 24 99 
Route 12 : 74 149 
Route 13 : 
Route 14 : 
Route 15 : 
Route 16 : 
Route 17 : 
Route 18 : 
Route 19 : 
Route 20 : 
Route 21 : 

--------------------------------------------------------------------------------(Solver execution current time: 22.142796277999878)
[INFO] Starting PartitionMaxRequestsHF
--------------------------------------------------------------------------------(Solver execution current time: 22.207801342010498)
[SOLUTION]
PartitionMaxRequestsHF
Exec Time: 0.06465673446655273
obj_value: -65; obj_routes: 28502.0
Route 1 : 33 13 88 53 18 70 62 2 27 108 128 145 10 48 77 123 1 28 102 103 76 42 117 4 85 14 137 89 79 93 49 60 124 135 
Route 2 : 65 140 
Route 3 : 6 32 107 52 59 81 127 3 11 86 19 31 94 106 41 134 39 116 78 56 68 131 22 97 114 12 87 143 
Route 4 : 51 126 63 40 115 138 54 129 9 84 50 69 125 144 23 98 
Route 5 : 37 43 38 113 8 45 112 83 120 67 118 142 
Route 6 : 75 150 47 30 122 7 105 82 72 147 
Route 7 : 17 92 15 90 57 132 
Route 8 : 73 148 66 141 
Route 9 : 29 21 64 96 61 136 139 104 
Route 10 : 35 16 58 91 110 133 
Route 11 : 24 99 
Route 12 : 74 149 
Route 13 : 
Route 14 : 
Route 15 : 
Route 16 : 
Route 17 : 
Route 18 : 
Route 19 : 
Route 20 : 
Route 21 : 

--------------------------------------------------------------------------------(Solver execution current time: 22.211857557296753)
[INFO] Starting OriginalPerturbation
--------------------------------------------------------------------------------(Solver execution current time: 24.15874981880188)
[SOLUTION]
Original Perturbation
Exec Time: 1.94996976852417
obj_value: -65; obj_routes: 29661.0
Route 1 : 6 32 107 52 59 81 127 3 11 86 19 31 94 106 41 134 39 116 78 56 68 131 22 97 114 12 87 143 
Route 2 : 33 13 88 53 18 70 62 2 27 108 128 145 10 48 77 123 1 28 102 103 76 42 117 4 85 14 137 89 79 93 49 60 124 135 
Route 3 : 51 126 63 40 115 138 54 129 9 84 69 66 141 144 
Route 4 : 73 148 61 43 8 136 45 83 120 118 
Route 5 : 75 74 150 149 30 105 72 147 
Route 6 : 17 7 47 122 92 82 
Route 7 : 37 112 38 113 
Route 8 : 23 98 29 104 
Route 9 : 16 67 142 57 132 91 
Route 10 : 21 58 96 133 35 110 
Route 11 : 50 24 99 125 64 139 
Route 12 : 
Route 13 : 65 15 90 140 
Route 14 : 
Route 15 : 
Route 16 : 
Route 17 : 
Route 18 : 
Route 19 : 
Route 20 : 
Route 21 : 

--------------------------------------------------------------------------------(Solver execution current time: 24.16033411026001)
[SOLUTION]
SBMath
IT: 3
ITs witout improving: 3
IT time: 3.086732864379883
Time since begin: 12.2745201587677
obj_value: -65; obj_routes: 29661.0
Route 1 : 6 32 107 52 59 81 127 3 11 86 19 31 94 106 41 134 39 116 78 56 68 131 22 97 114 12 87 143 
Route 2 : 33 13 88 53 18 70 62 2 27 108 128 145 10 48 77 123 1 28 102 103 76 42 117 4 85 14 137 89 79 93 49 60 124 135 
Route 3 : 51 126 63 40 115 138 54 129 9 84 69 66 141 144 
Route 4 : 73 148 61 43 8 136 45 83 120 118 
Route 5 : 75 74 150 149 30 105 72 147 
Route 6 : 17 7 47 122 92 82 
Route 7 : 37 112 38 113 
Route 8 : 23 98 29 104 
Route 9 : 16 67 142 57 132 91 
Route 10 : 21 58 96 133 35 110 
Route 11 : 50 24 99 125 64 139 
Route 12 : 
Route 13 : 65 15 90 140 
Route 14 : 
Route 15 : 
Route 16 : 
Route 17 : 
Route 18 : 
Route 19 : 
Route 20 : 
Route 21 : 

--------------------------------------------------------------------------------(Solver execution current time: 24.160566091537476)
[SOLUTION]
SBMath
IT: 3
ITs witout improving: 3
IT time: 3.086732864379883
Time since begin: 12.2745201587677
obj_value: -65; obj_routes: 27235.0
Route 1 : 6 32 107 52 59 81 127 3 11 86 19 31 94 106 41 134 39 116 78 56 68 131 74 149 22 97 114 12 87 143 47 122 
Route 2 : 33 13 88 53 18 70 62 2 27 108 128 145 10 48 77 123 1 28 102 103 76 42 117 4 85 14 137 89 79 93 8 83 49 60 124 135 
Route 3 : 51 126 63 40 115 138 54 129 9 84 50 69 43 24 99 15 125 144 37 90 118 112 
Route 4 : 73 148 57 64 29 132 30 139 104 61 45 136 105 120 23 98 67 142 
Route 5 : 75 150 66 7 141 38 113 82 72 16 147 91 
Route 6 : 21 96 17 35 92 110 
Route 7 : 58 133 
Route 8 : 65 140 
Route 9 : 
Route 10 : 
Route 11 : 
Route 12 : 
Route 13 : 
Route 14 : 
Route 15 : 
Route 16 : 
Route 17 : 
Route 18 : 
Route 19 : 
Route 20 : 
Route 21 : 

--------------------------------------------------------------------------------(Solver execution current time: 24.160786867141724)
[INFO] AGES EXCLUDED
--------------------------------------------------------------------------------(Solver execution current time: 24.1623215675354)
[INFO] Starting LNS
--------------------------------------------------------------------------------(Solver execution current time: 25.05927085876465)
[SOLUTION]
LNS
IT: 40
Exec Time: 0.8949429988861084
obj_value: -65; obj_routes: 29661.0
Route 1 : 6 32 107 52 59 81 127 3 11 86 19 31 94 106 41 134 39 116 78 56 68 131 22 97 114 12 87 143 
Route 2 : 33 13 88 53 18 70 62 2 27 108 128 145 10 48 77 123 1 28 102 103 76 42 117 4 85 14 137 89 79 93 49 60 124 135 
Route 3 : 51 126 63 40 115 138 54 129 9 84 69 66 141 144 
Route 4 : 73 148 61 43 8 136 45 83 120 118 
Route 5 : 75 74 150 149 30 105 72 147 
Route 6 : 17 7 47 122 92 82 
Route 7 : 37 112 38 113 
Route 8 : 23 98 29 104 
Route 9 : 16 67 142 57 132 91 
Route 10 : 21 58 96 133 35 110 
Route 11 : 50 24 99 125 64 139 
Route 12 : 
Route 13 : 65 15 90 140 
Route 14 : 
Route 15 : 
Route 16 : 
Route 17 : 
Route 18 : 
Route 19 : 
Route 20 : 
Route 21 : 

--------------------------------------------------------------------------------(Solver execution current time: 25.061784267425537)
[INFO] Starting PartitionMaxRequestsHF
--------------------------------------------------------------------------------(Solver execution current time: 25.088582515716553)
[SOLUTION]
PartitionMaxRequestsHF
Exec Time: 0.026740074157714844
obj_value: -65; obj_routes: 29661.0
Route 1 : 21 58 96 133 35 110 
Route 2 : 33 13 88 53 18 70 62 2 27 108 128 145 10 48 77 123 1 28 102 103 76 42 117 4 85 14 137 89 79 93 49 60 124 135 
Route 3 : 6 32 107 52 59 81 127 3 11 86 19 31 94 106 41 134 39 116 78 56 68 131 22 97 114 12 87 143 
Route 4 : 51 126 63 40 115 138 54 129 9 84 69 66 141 144 
Route 5 : 73 148 61 43 8 136 45 83 120 118 
Route 6 : 75 74 150 149 30 105 72 147 
Route 7 : 17 7 47 122 92 82 
Route 8 : 37 112 38 113 
Route 9 : 23 98 29 104 
Route 10 : 16 67 142 57 132 91 
Route 11 : 50 24 99 125 64 139 
Route 12 : 65 15 90 140 
Route 13 : 
Route 14 : 
Route 15 : 
Route 16 : 
Route 17 : 
Route 18 : 
Route 19 : 
Route 20 : 
Route 21 : 

--------------------------------------------------------------------------------(Solver execution current time: 25.090543270111084)
[INFO] Starting OriginalPerturbation
--------------------------------------------------------------------------------(Solver execution current time: 26.977118730545044)
[SOLUTION]
Original Perturbation
Exec Time: 1.8880953788757324
obj_value: -65; obj_routes: 31955.0
Route 1 : 6 32 107 52 59 81 127 3 11 86 19 31 94 106 41 134 39 116 78 56 68 131 22 97 114 12 87 143 
Route 2 : 33 13 88 53 18 70 62 2 27 108 128 145 10 48 77 123 1 28 102 103 76 42 117 4 85 14 137 89 79 93 49 60 124 135 
Route 3 : 51 126 63 40 115 138 54 129 9 84 58 133 29 104 
Route 4 : 47 122 8 45 83 120 
Route 5 : 73 148 17 92 50 72 125 147 
Route 6 : 24 99 
Route 7 : 57 132 
Route 8 : 75 21 96 37 150 43 118 112 
Route 9 : 16 67 142 66 91 141 
Route 10 : 64 139 
Route 11 : 38 113 74 61 7 149 136 82 23 98 
Route 12 : 65 140 
Route 13 : 15 30 35 90 105 110 
Route 14 : 69 144 
Route 15 : 
Route 16 : 
Route 17 : 
Route 18 : 
Route 19 : 
Route 20 : 
Route 21 : 

--------------------------------------------------------------------------------(Solver execution current time: 26.97874355316162)
[SOLUTION]
SBMath
IT: 4
ITs witout improving: 4
IT time: 2.817963123321533
Time since begin: 15.092931032180786
obj_value: -65; obj_routes: 31955.0
Route 1 : 6 32 107 52 59 81 127 3 11 86 19 31 94 106 41 134 39 116 78 56 68 131 22 97 114 12 87 143 
Route 2 : 33 13 88 53 18 70 62 2 27 108 128 145 10 48 77 123 1 28 102 103 76 42 117 4 85 14 137 89 79 93 49 60 124 135 
Route 3 : 51 126 63 40 115 138 54 129 9 84 58 133 29 104 
Route 4 : 47 122 8 45 83 120 
Route 5 : 73 148 17 92 50 72 125 147 
Route 6 : 24 99 
Route 7 : 57 132 
Route 8 : 75 21 96 37 150 43 118 112 
Route 9 : 16 67 142 66 91 141 
Route 10 : 64 139 
Route 11 : 38 113 74 61 7 149 136 82 23 98 
Route 12 : 65 140 
Route 13 : 15 30 35 90 105 110 
Route 14 : 69 144 
Route 15 : 
Route 16 : 
Route 17 : 
Route 18 : 
Route 19 : 
Route 20 : 
Route 21 : 

--------------------------------------------------------------------------------(Solver execution current time: 26.978973150253296)
[SOLUTION]
SBMath
IT: 4
ITs witout improving: 4
IT time: 2.817963123321533
Time since begin: 15.092931032180786
obj_value: -65; obj_routes: 27235.0
Route 1 : 6 32 107 52 59 81 127 3 11 86 19 31 94 106 41 134 39 116 78 56 68 131 74 149 22 97 114 12 87 143 47 122 
Route 2 : 33 13 88 53 18 70 62 2 27 108 128 145 10 48 77 123 1 28 102 103 76 42 117 4 85 14 137 89 79 93 8 83 49 60 124 135 
Route 3 : 51 126 63 40 115 138 54 129 9 84 50 69 43 24 99 15 125 144 37 90 118 112 
Route 4 : 73 148 57 64 29 132 30 139 104 61 45 136 105 120 23 98 67 142 
Route 5 : 75 150 66 7 141 38 113 82 72 16 147 91 
Route 6 : 21 96 17 35 92 110 
Route 7 : 58 133 
Route 8 : 65 140 
Route 9 : 
Route 10 : 
Route 11 : 
Route 12 : 
Route 13 : 
Route 14 : 
Route 15 : 
Route 16 : 
Route 17 : 
Route 18 : 
Route 19 : 
Route 20 : 
Route 21 : 

--------------------------------------------------------------------------------(Solver execution current time: 26.97922945022583)
[INFO] AGES EXCLUDED
--------------------------------------------------------------------------------(Solver execution current time: 26.980781316757202)
[INFO] Starting LNS
--------------------------------------------------------------------------------(Solver execution current time: 27.941158056259155)
[SOLUTION]
LNS
IT: 40
Exec Time: 0.9581911563873291
obj_value: -65; obj_routes: 31955.0
Route 1 : 6 32 107 52 59 81 127 3 11 86 19 31 94 106 41 134 39 116 78 56 68 131 22 97 114 12 87 143 
Route 2 : 33 13 88 53 18 70 62 2 27 108 128 145 10 48 77 123 1 28 102 103 76 42 117 4 85 14 137 89 79 93 49 60 124 135 
Route 3 : 51 126 63 40 115 138 54 129 9 84 58 133 29 104 
Route 4 : 47 122 8 45 83 120 
Route 5 : 73 148 17 92 50 72 125 147 
Route 6 : 24 99 
Route 7 : 57 132 
Route 8 : 75 21 96 37 150 43 118 112 
Route 9 : 16 67 142 66 91 141 
Route 10 : 64 139 
Route 11 : 38 113 74 61 7 149 136 82 23 98 
Route 12 : 65 140 
Route 13 : 15 30 35 90 105 110 
Route 14 : 69 144 
Route 15 : 
Route 16 : 
Route 17 : 
Route 18 : 
Route 19 : 
Route 20 : 
Route 21 : 

--------------------------------------------------------------------------------(Solver execution current time: 27.946030616760254)
[INFO] Starting PartitionMaxRequestsHF
--------------------------------------------------------------------------------(Solver execution current time: 27.98246669769287)
[SOLUTION]
PartitionMaxRequestsHF
Exec Time: 0.03631949424743652
obj_value: -65; obj_routes: 31955.0
Route 1 : 33 13 88 53 18 70 62 2 27 108 128 145 10 48 77 123 1 28 102 103 76 42 117 4 85 14 137 89 79 93 49 60 124 135 
Route 2 : 65 140 
Route 3 : 6 32 107 52 59 81 127 3 11 86 19 31 94 106 41 134 39 116 78 56 68 131 22 97 114 12 87 143 
Route 4 : 24 99 
Route 5 : 51 126 63 40 115 138 54 129 9 84 58 133 29 104 
Route 6 : 47 122 8 45 83 120 
Route 7 : 73 148 17 92 50 72 125 147 
Route 8 : 57 132 
Route 9 : 75 21 96 37 150 43 118 112 
Route 10 : 16 67 142 66 91 141 
Route 11 : 64 139 
Route 12 : 38 113 74 61 7 149 136 82 23 98 
Route 13 : 15 30 35 90 105 110 
Route 14 : 69 144 
Route 15 : 
Route 16 : 
Route 17 : 
Route 18 : 
Route 19 : 
Route 20 : 
Route 21 : 

--------------------------------------------------------------------------------(Solver execution current time: 27.98466420173645)
[INFO] Starting OriginalPerturbation
--------------------------------------------------------------------------------(Solver execution current time: 28.91444158554077)
[SOLUTION]
Original Perturbation
Exec Time: 0.9314360618591309
obj_value: -65; obj_routes: 31005.0
Route 1 : 6 32 107 52 59 81 127 3 11 86 19 31 94 106 41 134 39 116 78 56 68 131 22 97 114 12 87 143 
Route 2 : 33 13 88 53 18 70 62 2 27 108 128 145 10 48 77 123 1 28 102 103 76 42 117 4 85 14 137 89 79 93 49 60 124 135 
Route 3 : 51 126 63 40 115 138 54 129 9 84 58 133 66 141 
Route 4 : 16 91 30 105 67 142 
Route 5 : 29 17 92 104 50 72 125 147 
Route 6 : 64 139 
Route 7 : 23 98 65 140 
Route 8 : 21 96 37 45 120 43 118 112 
Route 9 : 8 74 149 83 
Route 10 : 47 122 
Route 11 : 38 113 57 61 24 99 7 132 136 82 
Route 12 : 73 148 
Route 13 : 15 35 90 75 110 150 
Route 14 : 69 144 
Route 15 : 
Route 16 : 
Route 17 : 
Route 18 : 
Route 19 : 
Route 20 : 
Route 21 : 

--------------------------------------------------------------------------------(Solver execution current time: 28.916074991226196)
[SOLUTION]
SBMath
IT: 5
ITs witout improving: 5
IT time: 1.9368512630462646
Time since begin: 17.03026294708252
obj_value: -65; obj_routes: 31005.0
Route 1 : 6 32 107 52 59 81 127 3 11 86 19 31 94 106 41 134 39 116 78 56 68 131 22 97 114 12 87 143 
Route 2 : 33 13 88 53 18 70 62 2 27 108 128 145 10 48 77 123 1 28 102 103 76 42 117 4 85 14 137 89 79 93 49 60 124 135 
Route 3 : 51 126 63 40 115 138 54 129 9 84 58 133 66 141 
Route 4 : 16 91 30 105 67 142 
Route 5 : 29 17 92 104 50 72 125 147 
Route 6 : 64 139 
Route 7 : 23 98 65 140 
Route 8 : 21 96 37 45 120 43 118 112 
Route 9 : 8 74 149 83 
Route 10 : 47 122 
Route 11 : 38 113 57 61 24 99 7 132 136 82 
Route 12 : 73 148 
Route 13 : 15 35 90 75 110 150 
Route 14 : 69 144 
Route 15 : 
Route 16 : 
Route 17 : 
Route 18 : 
Route 19 : 
Route 20 : 
Route 21 : 

--------------------------------------------------------------------------------(Solver execution current time: 28.916300773620605)
[SOLUTION]
SBMath
IT: 5
ITs witout improving: 5
IT time: 1.9368512630462646
Time since begin: 17.03026294708252
obj_value: -65; obj_routes: 27235.0
Route 1 : 6 32 107 52 59 81 127 3 11 86 19 31 94 106 41 134 39 116 78 56 68 131 74 149 22 97 114 12 87 143 47 122 
Route 2 : 33 13 88 53 18 70 62 2 27 108 128 145 10 48 77 123 1 28 102 103 76 42 117 4 85 14 137 89 79 93 8 83 49 60 124 135 
Route 3 : 51 126 63 40 115 138 54 129 9 84 50 69 43 24 99 15 125 144 37 90 118 112 
Route 4 : 73 148 57 64 29 132 30 139 104 61 45 136 105 120 23 98 67 142 
Route 5 : 75 150 66 7 141 38 113 82 72 16 147 91 
Route 6 : 21 96 17 35 92 110 
Route 7 : 58 133 
Route 8 : 65 140 
Route 9 : 
Route 10 : 
Route 11 : 
Route 12 : 
Route 13 : 
Route 14 : 
Route 15 : 
Route 16 : 
Route 17 : 
Route 18 : 
Route 19 : 
Route 20 : 
Route 21 : 

--------------------------------------------------------------------------------(Solver execution current time: 28.91653537750244)
[INFO] AGES EXCLUDED
--------------------------------------------------------------------------------(Solver execution current time: 28.918062686920166)
[INFO] Starting LNS
--------------------------------------------------------------------------------(Solver execution current time: 29.866212368011475)
[SOLUTION]
LNS
IT: 40
Exec Time: 0.9461236000061035
obj_value: -65; obj_routes: 31005.0
Route 1 : 6 32 107 52 59 81 127 3 11 86 19 31 94 106 41 134 39 116 78 56 68 131 22 97 114 12 87 143 
Route 2 : 33 13 88 53 18 70 62 2 27 108 128 145 10 48 77 123 1 28 102 103 76 42 117 4 85 14 137 89 79 93 49 60 124 135 
Route 3 : 51 126 63 40 115 138 54 129 9 84 58 133 66 141 
Route 4 : 16 91 30 105 67 142 
Route 5 : 29 17 92 104 50 72 125 147 
Route 6 : 64 139 
Route 7 : 23 98 65 140 
Route 8 : 21 96 37 45 120 43 118 112 
Route 9 : 8 74 149 83 
Route 10 : 47 122 
Route 11 : 38 113 57 61 24 99 7 132 136 82 
Route 12 : 73 148 
Route 13 : 15 35 90 75 110 150 
Route 14 : 69 144 
Route 15 : 
Route 16 : 
Route 17 : 
Route 18 : 
Route 19 : 
Route 20 : 
Route 21 : 

--------------------------------------------------------------------------------(Solver execution current time: 29.868799209594727)
[INFO] Starting PartitionMaxRequestsHF
--------------------------------------------------------------------------------(Solver execution current time: 29.949687957763672)
[SOLUTION]
PartitionMaxRequestsHF
Exec Time: 0.0808110237121582
Improvedobj_value: -65; obj_routes: 30108.0
Route 1 : 6 32 107 52 59 81 127 3 11 86 19 31 94 106 41 134 39 116 78 56 68 131 74 149 22 97 114 12 87 143 47 122 
Route 2 : 33 13 88 53 18 70 62 2 27 108 128 145 10 48 77 123 1 28 102 103 76 42 117 4 85 14 137 89 79 93 8 83 49 60 124 135 
Route 3 : 64 139 
Route 4 : 69 144 
Route 5 : 51 126 63 40 115 138 54 129 9 84 58 133 66 141 
Route 6 : 16 91 30 105 67 142 
Route 7 : 29 17 92 104 50 72 125 147 
Route 8 : 23 98 65 140 
Route 9 : 21 96 37 45 120 43 118 112 
Route 10 : 38 113 57 61 24 99 7 132 136 82 
Route 11 : 73 148 
Route 12 : 15 35 90 75 110 150 
Route 13 : 
Route 14 : 
Route 15 : 
Route 16 : 
Route 17 : 
Route 18 : 
Route 19 : 
Route 20 : 
Route 21 : 

--------------------------------------------------------------------------------(Solver execution current time: 29.953218698501587)
[INFO] Starting OriginalPerturbation
--------------------------------------------------------------------------------(Solver execution current time: 30.016604900360107)
[WARNING] Time Limit Exceeded
--------------------------------------------------------------------------------(Solver execution current time: 30.016701698303223)
[WARNING] Searching current best solution.
--------------------------------------------------------------------------------(Solver execution current time: 30.0185329914093)
[INFO] Algorithm execution time : 30.019312381744385
--------------------------------------------------------------------------------(Solver execution current time: 30.01956295967102)
[SOLUTION]
Final Solution Verification
====================================
Constraints verification: 
Homogenous Capacity Constraint OK
Time Windwos Constraint OK
Pickup and Delivery Constraint OK
Fixed Requests Constraint OK
Limited Fleet Constraint OK
Heterogeneous Fleet Constraint OK
====================================
Obj Func verification: 
SOLUTION COST OK
------------------------------------
ROUTES TOTAL COST OK
------------------------------------
REQUESTS TOTAL COST OK
------------------------------------
OBJECTIVE VALUE: -65
ROUTES VALUE: 27235.0
------------------------------------

Best Solution: 
obj_value: -65; obj_routes: 27235.0
Route 1 : 6 32 107 52 59 81 127 3 11 86 19 31 94 106 41 134 39 116 78 56 68 131 74 149 22 97 114 12 87 143 47 122 
Route 2 : 33 13 88 53 18 70 62 2 27 108 128 145 10 48 77 123 1 28 102 103 76 42 117 4 85 14 137 89 79 93 8 83 49 60 124 135 
Route 3 : 51 126 63 40 115 138 54 129 9 84 50 69 43 24 99 15 125 144 37 90 118 112 
Route 4 : 73 148 57 64 29 132 30 139 104 61 45 136 105 120 23 98 67 142 
Route 5 : 75 150 66 7 141 38 113 82 72 16 147 91 
Route 6 : 21 96 17 35 92 110 
Route 7 : 58 133 
Route 8 : 65 140 
Route 9 : 
Route 10 : 
Route 11 : 
Route 12 : 
Route 13 : 
Route 14 : 
Route 15 : 
Route 16 : 
Route 17 : 
Route 18 : 
Route 19 : 
Route 20 : 
Route 21 : 

--------------------------------------------------------------------------------